NAME : X_18_seed_123_id_4
TYPE : CVRP
DIMENSION : 181
EDGE_WEIGHT_TYPE : EUC_2D
CAPACITY : 8
NODE_COORD_SECTION
1	325	138
2	575	743
3	48	85
4	98	915
5	965	276
6	671	427
7	813	40
8	572	730
9	669	514
10	79	37
11	771	437
12	602	528
13	43	977
14	478	620
15	610	420
16	921	449
17	659	434
18	594	768
19	96	909
20	939	313
21	866	49
22	524	802
23	983	273
24	684	463
25	802	15
26	738	27
27	564	745
28	73	914
29	151	880
30	69	64
31	602	819
32	653	458
33	152	956
34	869	34
35	4	61
36	616	468
37	605	398
38	850	251
39	55	72
40	88	948
41	32	99
42	691	457
43	685	329
44	553	786
45	599	671
46	923	268
47	120	876
48	121	924
49	804	646
50	32	2
51	215	54
52	957	3
53	835	33
54	167	949
55	998	288
56	784	54
57	787	83
58	626	375
59	764	327
60	966	176
61	790	56
62	123	59
63	872	331
64	105	918
65	27	901
66	655	496
67	61	1
68	813	89
69	601	720
70	680	435
71	45	111
72	37	75
73	61	886
74	672	899
75	518	729
76	729	31
77	601	796
78	766	1
79	672	110
80	863	70
81	609	718
82	148	861
83	669	62
84	720	97
85	866	228
86	999	288
87	62	948
88	26	91
89	101	902
90	28	68
91	857	28
92	790	18
93	924	169
94	818	115
95	562	771
96	969	233
97	887	283
98	982	226
99	947	111
100	215	899
101	736	427
102	580	789
103	923	12
104	671	874
105	787	64
106	64	994
107	143	967
108	610	324
109	736	702
110	21	57
111	832	44
112	82	960
113	94	138
114	649	513
115	103	123
116	28	23
117	627	407
118	59	93
119	624	445
120	570	747
121	1	161
122	784	41
123	777	24
124	586	471
125	500	730
126	65	951
127	984	283
128	686	463
129	962	310
130	937	240
131	489	674
132	727	387
133	688	440
134	534	763
135	768	38
136	71	913
137	567	741
138	881	334
139	80	34
140	800	440
141	976	285
142	969	265
143	657	417
144	35	97
145	748	16
146	934	343
147	563	842
148	887	64
149	844	195
150	733	476
151	962	340
152	605	693
153	942	265
154	45	82
155	142	26
156	782	560
157	677	396
158	505	663
159	919	266
160	648	453
161	977	293
162	602	791
163	53	994
164	554	751
165	94	934
166	964	116
167	707	468
168	516	736
169	554	723
170	51	87
171	794	118
172	614	806
173	119	959
174	618	771
175	77	804
176	596	398
177	85	891
178	546	722
179	514	757
180	711	8
181	81	936
DEMAND_SECTION
1	0
2	1
3	1
4	1
5	1
6	1
7	1
8	1
9	1
10	1
11	1
12	1
13	1
14	1
15	1
16	1
17	1
18	1
19	1
20	1
21	1
22	1
23	1
24	1
25	1
26	1
27	1
28	1
29	1
30	1
31	1
32	1
33	1
34	1
35	1
36	1
37	1
38	1
39	1
40	1
41	1
42	1
43	1
44	1
45	1
46	1
47	1
48	1
49	1
50	1
51	1
52	1
53	1
54	1
55	1
56	1
57	1
58	1
59	1
60	1
61	1
62	1
63	1
64	1
65	1
66	1
67	1
68	1
69	1
70	1
71	1
72	1
73	1
74	1
75	1
76	1
77	1
78	1
79	1
80	1
81	1
82	1
83	1
84	1
85	1
86	1
87	1
88	1
89	1
90	1
91	1
92	1
93	1
94	1
95	1
96	1
97	1
98	1
99	1
100	1
101	1
102	1
103	1
104	1
105	1
106	1
107	1
108	1
109	1
110	1
111	1
112	1
113	1
114	1
115	1
116	1
117	1
118	1
119	1
120	1
121	1
122	1
123	1
124	1
125	1
126	1
127	1
128	1
129	1
130	1
131	1
132	1
133	1
134	1
135	1
136	1
137	1
138	1
139	1
140	1
141	1
142	1
143	1
144	1
145	1
146	1
147	1
148	1
149	1
150	1
151	1
152	1
153	1
154	1
155	1
156	1
157	1
158	1
159	1
160	1
161	1
162	1
163	1
164	1
165	1
166	1
167	1
168	1
169	1
170	1
171	1
172	1
173	1
174	1
175	1
176	1
177	1
178	1
179	1
180	1
181	1
DEPOT_SECTION
1
-1
EOF
